num_bands         =   16       
num_wann          =   2

dis_win_min=-25
dis_win_max=20
dis_froz_min=-4.2392
dis_froz_max=0.2393
dis_num_iter      =  300
num_iter          = 200
num_print_cycles  = 10


guiding_centres = true
write_hr = true
write_xyz = true

bands_plot = true

begin kpoint_path
G 0.0000000000     0.0000000000     0.0000000000  M 0.5000000000    -0.5000000000     0.0000000000
M 0.5000000000    -0.5000000000     0.0000000000  K 0.6666666667    -0.3333333333     0.0000000000 
K 0.6666666667    -0.3333333333     0.0000000000  G 0.0000000000     0.0000000000     0.0000000000
end kpoint_path


Begin Atoms_Frac
C    0.0000000000    0.0000000000    0.2500000000
C    0.3333333333    0.6666666667    0.2500000000
End Atoms_Frac
    
Begin Projections     
C:pz
End Projections       
    
Begin Unit_Cell_Cart
    2.1304215583   -1.2299994602    0.0000000000
    0.0000000000    2.4599989204    0.0000000000
    0.0000000000    0.0000000000   15.0000000000
End Unit_Cell_Cart


mp_grid      = 15 15 1

begin kpoints
  0.00000000  0.00000000  0.00000000 
  0.00000000  0.06666667  0.00000000 
  0.00000000  0.13333333  0.00000000 
  0.00000000  0.20000000  0.00000000 
  0.00000000  0.26666667  0.00000000 
  0.00000000  0.33333333  0.00000000 
  0.00000000  0.40000000  0.00000000 
  0.00000000  0.46666667  0.00000000 
  0.00000000  0.53333333  0.00000000 
  0.00000000  0.60000000  0.00000000 
  0.00000000  0.66666667  0.00000000 
  0.00000000  0.73333333  0.00000000 
  0.00000000  0.80000000  0.00000000 
  0.00000000  0.86666667  0.00000000 
  0.00000000  0.93333333  0.00000000 
  0.06666667  0.00000000  0.00000000 
  0.06666667  0.06666667  0.00000000 
  0.06666667  0.13333333  0.00000000 
  0.06666667  0.20000000  0.00000000 
  0.06666667  0.26666667  0.00000000 
  0.06666667  0.33333333  0.00000000 
  0.06666667  0.40000000  0.00000000 
  0.06666667  0.46666667  0.00000000 
  0.06666667  0.53333333  0.00000000 
  0.06666667  0.60000000  0.00000000 
  0.06666667  0.66666667  0.00000000 
  0.06666667  0.73333333  0.00000000 
  0.06666667  0.80000000  0.00000000 
  0.06666667  0.86666667  0.00000000 
  0.06666667  0.93333333  0.00000000 
  0.13333333  0.00000000  0.00000000 
  0.13333333  0.06666667  0.00000000 
  0.13333333  0.13333333  0.00000000 
  0.13333333  0.20000000  0.00000000 
  0.13333333  0.26666667  0.00000000 
  0.13333333  0.33333333  0.00000000 
  0.13333333  0.40000000  0.00000000 
  0.13333333  0.46666667  0.00000000 
  0.13333333  0.53333333  0.00000000 
  0.13333333  0.60000000  0.00000000 
  0.13333333  0.66666667  0.00000000 
  0.13333333  0.73333333  0.00000000 
  0.13333333  0.80000000  0.00000000 
  0.13333333  0.86666667  0.00000000 
  0.13333333  0.93333333  0.00000000 
  0.20000000  0.00000000  0.00000000 
  0.20000000  0.06666667  0.00000000 
  0.20000000  0.13333333  0.00000000 
  0.20000000  0.20000000  0.00000000 
  0.20000000  0.26666667  0.00000000 
  0.20000000  0.33333333  0.00000000 
  0.20000000  0.40000000  0.00000000 
  0.20000000  0.46666667  0.00000000 
  0.20000000  0.53333333  0.00000000 
  0.20000000  0.60000000  0.00000000 
  0.20000000  0.66666667  0.00000000 
  0.20000000  0.73333333  0.00000000 
  0.20000000  0.80000000  0.00000000 
  0.20000000  0.86666667  0.00000000 
  0.20000000  0.93333333  0.00000000 
  0.26666667  0.00000000  0.00000000 
  0.26666667  0.06666667  0.00000000 
  0.26666667  0.13333333  0.00000000 
  0.26666667  0.20000000  0.00000000 
  0.26666667  0.26666667  0.00000000 
  0.26666667  0.33333333  0.00000000 
  0.26666667  0.40000000  0.00000000 
  0.26666667  0.46666667  0.00000000 
  0.26666667  0.53333333  0.00000000 
  0.26666667  0.60000000  0.00000000 
  0.26666667  0.66666667  0.00000000 
  0.26666667  0.73333333  0.00000000 
  0.26666667  0.80000000  0.00000000 
  0.26666667  0.86666667  0.00000000 
  0.26666667  0.93333333  0.00000000 
  0.33333333  0.00000000  0.00000000 
  0.33333333  0.06666667  0.00000000 
  0.33333333  0.13333333  0.00000000 
  0.33333333  0.20000000  0.00000000 
  0.33333333  0.26666667  0.00000000 
  0.33333333  0.33333333  0.00000000 
  0.33333333  0.40000000  0.00000000 
  0.33333333  0.46666667  0.00000000 
  0.33333333  0.53333333  0.00000000 
  0.33333333  0.60000000  0.00000000 
  0.33333333  0.66666667  0.00000000 
  0.33333333  0.73333333  0.00000000 
  0.33333333  0.80000000  0.00000000 
  0.33333333  0.86666667  0.00000000 
  0.33333333  0.93333333  0.00000000 
  0.40000000  0.00000000  0.00000000 
  0.40000000  0.06666667  0.00000000 
  0.40000000  0.13333333  0.00000000 
  0.40000000  0.20000000  0.00000000 
  0.40000000  0.26666667  0.00000000 
  0.40000000  0.33333333  0.00000000 
  0.40000000  0.40000000  0.00000000 
  0.40000000  0.46666667  0.00000000 
  0.40000000  0.53333333  0.00000000 
  0.40000000  0.60000000  0.00000000 
  0.40000000  0.66666667  0.00000000 
  0.40000000  0.73333333  0.00000000 
  0.40000000  0.80000000  0.00000000 
  0.40000000  0.86666667  0.00000000 
  0.40000000  0.93333333  0.00000000 
  0.46666667  0.00000000  0.00000000 
  0.46666667  0.06666667  0.00000000 
  0.46666667  0.13333333  0.00000000 
  0.46666667  0.20000000  0.00000000 
  0.46666667  0.26666667  0.00000000 
  0.46666667  0.33333333  0.00000000 
  0.46666667  0.40000000  0.00000000 
  0.46666667  0.46666667  0.00000000 
  0.46666667  0.53333333  0.00000000 
  0.46666667  0.60000000  0.00000000 
  0.46666667  0.66666667  0.00000000 
  0.46666667  0.73333333  0.00000000 
  0.46666667  0.80000000  0.00000000 
  0.46666667  0.86666667  0.00000000 
  0.46666667  0.93333333  0.00000000 
  0.53333333  0.00000000  0.00000000 
  0.53333333  0.06666667  0.00000000 
  0.53333333  0.13333333  0.00000000 
  0.53333333  0.20000000  0.00000000 
  0.53333333  0.26666667  0.00000000 
  0.53333333  0.33333333  0.00000000 
  0.53333333  0.40000000  0.00000000 
  0.53333333  0.46666667  0.00000000 
  0.53333333  0.53333333  0.00000000 
  0.53333333  0.60000000  0.00000000 
  0.53333333  0.66666667  0.00000000 
  0.53333333  0.73333333  0.00000000 
  0.53333333  0.80000000  0.00000000 
  0.53333333  0.86666667  0.00000000 
  0.53333333  0.93333333  0.00000000 
  0.60000000  0.00000000  0.00000000 
  0.60000000  0.06666667  0.00000000 
  0.60000000  0.13333333  0.00000000 
  0.60000000  0.20000000  0.00000000 
  0.60000000  0.26666667  0.00000000 
  0.60000000  0.33333333  0.00000000 
  0.60000000  0.40000000  0.00000000 
  0.60000000  0.46666667  0.00000000 
  0.60000000  0.53333333  0.00000000 
  0.60000000  0.60000000  0.00000000 
  0.60000000  0.66666667  0.00000000 
  0.60000000  0.73333333  0.00000000 
  0.60000000  0.80000000  0.00000000 
  0.60000000  0.86666667  0.00000000 
  0.60000000  0.93333333  0.00000000 
  0.66666667  0.00000000  0.00000000 
  0.66666667  0.06666667  0.00000000 
  0.66666667  0.13333333  0.00000000 
  0.66666667  0.20000000  0.00000000 
  0.66666667  0.26666667  0.00000000 
  0.66666667  0.33333333  0.00000000 
  0.66666667  0.40000000  0.00000000 
  0.66666667  0.46666667  0.00000000 
  0.66666667  0.53333333  0.00000000 
  0.66666667  0.60000000  0.00000000 
  0.66666667  0.66666667  0.00000000 
  0.66666667  0.73333333  0.00000000 
  0.66666667  0.80000000  0.00000000 
  0.66666667  0.86666667  0.00000000 
  0.66666667  0.93333333  0.00000000 
  0.73333333  0.00000000  0.00000000 
  0.73333333  0.06666667  0.00000000 
  0.73333333  0.13333333  0.00000000 
  0.73333333  0.20000000  0.00000000 
  0.73333333  0.26666667  0.00000000 
  0.73333333  0.33333333  0.00000000 
  0.73333333  0.40000000  0.00000000 
  0.73333333  0.46666667  0.00000000 
  0.73333333  0.53333333  0.00000000 
  0.73333333  0.60000000  0.00000000 
  0.73333333  0.66666667  0.00000000 
  0.73333333  0.73333333  0.00000000 
  0.73333333  0.80000000  0.00000000 
  0.73333333  0.86666667  0.00000000 
  0.73333333  0.93333333  0.00000000 
  0.80000000  0.00000000  0.00000000 
  0.80000000  0.06666667  0.00000000 
  0.80000000  0.13333333  0.00000000 
  0.80000000  0.20000000  0.00000000 
  0.80000000  0.26666667  0.00000000 
  0.80000000  0.33333333  0.00000000 
  0.80000000  0.40000000  0.00000000 
  0.80000000  0.46666667  0.00000000 
  0.80000000  0.53333333  0.00000000 
  0.80000000  0.60000000  0.00000000 
  0.80000000  0.66666667  0.00000000 
  0.80000000  0.73333333  0.00000000 
  0.80000000  0.80000000  0.00000000 
  0.80000000  0.86666667  0.00000000 
  0.80000000  0.93333333  0.00000000 
  0.86666667  0.00000000  0.00000000 
  0.86666667  0.06666667  0.00000000 
  0.86666667  0.13333333  0.00000000 
  0.86666667  0.20000000  0.00000000 
  0.86666667  0.26666667  0.00000000 
  0.86666667  0.33333333  0.00000000 
  0.86666667  0.40000000  0.00000000 
  0.86666667  0.46666667  0.00000000 
  0.86666667  0.53333333  0.00000000 
  0.86666667  0.60000000  0.00000000 
  0.86666667  0.66666667  0.00000000 
  0.86666667  0.73333333  0.00000000 
  0.86666667  0.80000000  0.00000000 
  0.86666667  0.86666667  0.00000000 
  0.86666667  0.93333333  0.00000000 
  0.93333333  0.00000000  0.00000000 
  0.93333333  0.06666667  0.00000000 
  0.93333333  0.13333333  0.00000000 
  0.93333333  0.20000000  0.00000000 
  0.93333333  0.26666667  0.00000000 
  0.93333333  0.33333333  0.00000000 
  0.93333333  0.40000000  0.00000000 
  0.93333333  0.46666667  0.00000000 
  0.93333333  0.53333333  0.00000000 
  0.93333333  0.60000000  0.00000000 
  0.93333333  0.66666667  0.00000000 
  0.93333333  0.73333333  0.00000000 
  0.93333333  0.80000000  0.00000000 
  0.93333333  0.86666667  0.00000000 
  0.93333333  0.93333333  0.00000000 
end kpoints
