 &control
    calculation='nscf'
    pseudo_dir = './',
    outdir='./'
    prefix='gh'
 /
 &system
                       ibrav = 0,
                   celldm(1) = 1.8897261249935,
                         nat = 2,
                        ntyp = 1,
    ecutwfc =40.0,nbnd=16,nosym=.true.,
    occupations='smearing', smearing='cold', degauss=0.02
 /
 &electrons
    startingwfc='random'
    diagonalization='cg'
    conv_thr = 1.0e-8
    mixing_beta = 0.2
 /
CELL_PARAMETERS cubic
    2.1304215583   -1.2299994602    0.0000000000
    0.0000000000    2.4599989204    0.0000000000
    0.0000000000    0.0000000000   15.0000000000
ATOMIC_SPECIES
C  12   C.pz-vbc.UPF 
ATOMIC_POSITIONS crystal
     C    0.0000000000    0.0000000000    0.2500000000
     C    0.3333333333    0.6666666667    0.2500000000
K_POINTS crystal
225
  0.00000000  0.00000000  0.00000000  4.444444e-03 
  0.00000000  0.06666667  0.00000000  4.444444e-03 
  0.00000000  0.13333333  0.00000000  4.444444e-03 
  0.00000000  0.20000000  0.00000000  4.444444e-03 
  0.00000000  0.26666667  0.00000000  4.444444e-03 
  0.00000000  0.33333333  0.00000000  4.444444e-03 
  0.00000000  0.40000000  0.00000000  4.444444e-03 
  0.00000000  0.46666667  0.00000000  4.444444e-03 
  0.00000000  0.53333333  0.00000000  4.444444e-03 
  0.00000000  0.60000000  0.00000000  4.444444e-03 
  0.00000000  0.66666667  0.00000000  4.444444e-03 
  0.00000000  0.73333333  0.00000000  4.444444e-03 
  0.00000000  0.80000000  0.00000000  4.444444e-03 
  0.00000000  0.86666667  0.00000000  4.444444e-03 
  0.00000000  0.93333333  0.00000000  4.444444e-03 
  0.06666667  0.00000000  0.00000000  4.444444e-03 
  0.06666667  0.06666667  0.00000000  4.444444e-03 
  0.06666667  0.13333333  0.00000000  4.444444e-03 
  0.06666667  0.20000000  0.00000000  4.444444e-03 
  0.06666667  0.26666667  0.00000000  4.444444e-03 
  0.06666667  0.33333333  0.00000000  4.444444e-03 
  0.06666667  0.40000000  0.00000000  4.444444e-03 
  0.06666667  0.46666667  0.00000000  4.444444e-03 
  0.06666667  0.53333333  0.00000000  4.444444e-03 
  0.06666667  0.60000000  0.00000000  4.444444e-03 
  0.06666667  0.66666667  0.00000000  4.444444e-03 
  0.06666667  0.73333333  0.00000000  4.444444e-03 
  0.06666667  0.80000000  0.00000000  4.444444e-03 
  0.06666667  0.86666667  0.00000000  4.444444e-03 
  0.06666667  0.93333333  0.00000000  4.444444e-03 
  0.13333333  0.00000000  0.00000000  4.444444e-03 
  0.13333333  0.06666667  0.00000000  4.444444e-03 
  0.13333333  0.13333333  0.00000000  4.444444e-03 
  0.13333333  0.20000000  0.00000000  4.444444e-03 
  0.13333333  0.26666667  0.00000000  4.444444e-03 
  0.13333333  0.33333333  0.00000000  4.444444e-03 
  0.13333333  0.40000000  0.00000000  4.444444e-03 
  0.13333333  0.46666667  0.00000000  4.444444e-03 
  0.13333333  0.53333333  0.00000000  4.444444e-03 
  0.13333333  0.60000000  0.00000000  4.444444e-03 
  0.13333333  0.66666667  0.00000000  4.444444e-03 
  0.13333333  0.73333333  0.00000000  4.444444e-03 
  0.13333333  0.80000000  0.00000000  4.444444e-03 
  0.13333333  0.86666667  0.00000000  4.444444e-03 
  0.13333333  0.93333333  0.00000000  4.444444e-03 
  0.20000000  0.00000000  0.00000000  4.444444e-03 
  0.20000000  0.06666667  0.00000000  4.444444e-03 
  0.20000000  0.13333333  0.00000000  4.444444e-03 
  0.20000000  0.20000000  0.00000000  4.444444e-03 
  0.20000000  0.26666667  0.00000000  4.444444e-03 
  0.20000000  0.33333333  0.00000000  4.444444e-03 
  0.20000000  0.40000000  0.00000000  4.444444e-03 
  0.20000000  0.46666667  0.00000000  4.444444e-03 
  0.20000000  0.53333333  0.00000000  4.444444e-03 
  0.20000000  0.60000000  0.00000000  4.444444e-03 
  0.20000000  0.66666667  0.00000000  4.444444e-03 
  0.20000000  0.73333333  0.00000000  4.444444e-03 
  0.20000000  0.80000000  0.00000000  4.444444e-03 
  0.20000000  0.86666667  0.00000000  4.444444e-03 
  0.20000000  0.93333333  0.00000000  4.444444e-03 
  0.26666667  0.00000000  0.00000000  4.444444e-03 
  0.26666667  0.06666667  0.00000000  4.444444e-03 
  0.26666667  0.13333333  0.00000000  4.444444e-03 
  0.26666667  0.20000000  0.00000000  4.444444e-03 
  0.26666667  0.26666667  0.00000000  4.444444e-03 
  0.26666667  0.33333333  0.00000000  4.444444e-03 
  0.26666667  0.40000000  0.00000000  4.444444e-03 
  0.26666667  0.46666667  0.00000000  4.444444e-03 
  0.26666667  0.53333333  0.00000000  4.444444e-03 
  0.26666667  0.60000000  0.00000000  4.444444e-03 
  0.26666667  0.66666667  0.00000000  4.444444e-03 
  0.26666667  0.73333333  0.00000000  4.444444e-03 
  0.26666667  0.80000000  0.00000000  4.444444e-03 
  0.26666667  0.86666667  0.00000000  4.444444e-03 
  0.26666667  0.93333333  0.00000000  4.444444e-03 
  0.33333333  0.00000000  0.00000000  4.444444e-03 
  0.33333333  0.06666667  0.00000000  4.444444e-03 
  0.33333333  0.13333333  0.00000000  4.444444e-03 
  0.33333333  0.20000000  0.00000000  4.444444e-03 
  0.33333333  0.26666667  0.00000000  4.444444e-03 
  0.33333333  0.33333333  0.00000000  4.444444e-03 
  0.33333333  0.40000000  0.00000000  4.444444e-03 
  0.33333333  0.46666667  0.00000000  4.444444e-03 
  0.33333333  0.53333333  0.00000000  4.444444e-03 
  0.33333333  0.60000000  0.00000000  4.444444e-03 
  0.33333333  0.66666667  0.00000000  4.444444e-03 
  0.33333333  0.73333333  0.00000000  4.444444e-03 
  0.33333333  0.80000000  0.00000000  4.444444e-03 
  0.33333333  0.86666667  0.00000000  4.444444e-03 
  0.33333333  0.93333333  0.00000000  4.444444e-03 
  0.40000000  0.00000000  0.00000000  4.444444e-03 
  0.40000000  0.06666667  0.00000000  4.444444e-03 
  0.40000000  0.13333333  0.00000000  4.444444e-03 
  0.40000000  0.20000000  0.00000000  4.444444e-03 
  0.40000000  0.26666667  0.00000000  4.444444e-03 
  0.40000000  0.33333333  0.00000000  4.444444e-03 
  0.40000000  0.40000000  0.00000000  4.444444e-03 
  0.40000000  0.46666667  0.00000000  4.444444e-03 
  0.40000000  0.53333333  0.00000000  4.444444e-03 
  0.40000000  0.60000000  0.00000000  4.444444e-03 
  0.40000000  0.66666667  0.00000000  4.444444e-03 
  0.40000000  0.73333333  0.00000000  4.444444e-03 
  0.40000000  0.80000000  0.00000000  4.444444e-03 
  0.40000000  0.86666667  0.00000000  4.444444e-03 
  0.40000000  0.93333333  0.00000000  4.444444e-03 
  0.46666667  0.00000000  0.00000000  4.444444e-03 
  0.46666667  0.06666667  0.00000000  4.444444e-03 
  0.46666667  0.13333333  0.00000000  4.444444e-03 
  0.46666667  0.20000000  0.00000000  4.444444e-03 
  0.46666667  0.26666667  0.00000000  4.444444e-03 
  0.46666667  0.33333333  0.00000000  4.444444e-03 
  0.46666667  0.40000000  0.00000000  4.444444e-03 
  0.46666667  0.46666667  0.00000000  4.444444e-03 
  0.46666667  0.53333333  0.00000000  4.444444e-03 
  0.46666667  0.60000000  0.00000000  4.444444e-03 
  0.46666667  0.66666667  0.00000000  4.444444e-03 
  0.46666667  0.73333333  0.00000000  4.444444e-03 
  0.46666667  0.80000000  0.00000000  4.444444e-03 
  0.46666667  0.86666667  0.00000000  4.444444e-03 
  0.46666667  0.93333333  0.00000000  4.444444e-03 
  0.53333333  0.00000000  0.00000000  4.444444e-03 
  0.53333333  0.06666667  0.00000000  4.444444e-03 
  0.53333333  0.13333333  0.00000000  4.444444e-03 
  0.53333333  0.20000000  0.00000000  4.444444e-03 
  0.53333333  0.26666667  0.00000000  4.444444e-03 
  0.53333333  0.33333333  0.00000000  4.444444e-03 
  0.53333333  0.40000000  0.00000000  4.444444e-03 
  0.53333333  0.46666667  0.00000000  4.444444e-03 
  0.53333333  0.53333333  0.00000000  4.444444e-03 
  0.53333333  0.60000000  0.00000000  4.444444e-03 
  0.53333333  0.66666667  0.00000000  4.444444e-03 
  0.53333333  0.73333333  0.00000000  4.444444e-03 
  0.53333333  0.80000000  0.00000000  4.444444e-03 
  0.53333333  0.86666667  0.00000000  4.444444e-03 
  0.53333333  0.93333333  0.00000000  4.444444e-03 
  0.60000000  0.00000000  0.00000000  4.444444e-03 
  0.60000000  0.06666667  0.00000000  4.444444e-03 
  0.60000000  0.13333333  0.00000000  4.444444e-03 
  0.60000000  0.20000000  0.00000000  4.444444e-03 
  0.60000000  0.26666667  0.00000000  4.444444e-03 
  0.60000000  0.33333333  0.00000000  4.444444e-03 
  0.60000000  0.40000000  0.00000000  4.444444e-03 
  0.60000000  0.46666667  0.00000000  4.444444e-03 
  0.60000000  0.53333333  0.00000000  4.444444e-03 
  0.60000000  0.60000000  0.00000000  4.444444e-03 
  0.60000000  0.66666667  0.00000000  4.444444e-03 
  0.60000000  0.73333333  0.00000000  4.444444e-03 
  0.60000000  0.80000000  0.00000000  4.444444e-03 
  0.60000000  0.86666667  0.00000000  4.444444e-03 
  0.60000000  0.93333333  0.00000000  4.444444e-03 
  0.66666667  0.00000000  0.00000000  4.444444e-03 
  0.66666667  0.06666667  0.00000000  4.444444e-03 
  0.66666667  0.13333333  0.00000000  4.444444e-03 
  0.66666667  0.20000000  0.00000000  4.444444e-03 
  0.66666667  0.26666667  0.00000000  4.444444e-03 
  0.66666667  0.33333333  0.00000000  4.444444e-03 
  0.66666667  0.40000000  0.00000000  4.444444e-03 
  0.66666667  0.46666667  0.00000000  4.444444e-03 
  0.66666667  0.53333333  0.00000000  4.444444e-03 
  0.66666667  0.60000000  0.00000000  4.444444e-03 
  0.66666667  0.66666667  0.00000000  4.444444e-03 
  0.66666667  0.73333333  0.00000000  4.444444e-03 
  0.66666667  0.80000000  0.00000000  4.444444e-03 
  0.66666667  0.86666667  0.00000000  4.444444e-03 
  0.66666667  0.93333333  0.00000000  4.444444e-03 
  0.73333333  0.00000000  0.00000000  4.444444e-03 
  0.73333333  0.06666667  0.00000000  4.444444e-03 
  0.73333333  0.13333333  0.00000000  4.444444e-03 
  0.73333333  0.20000000  0.00000000  4.444444e-03 
  0.73333333  0.26666667  0.00000000  4.444444e-03 
  0.73333333  0.33333333  0.00000000  4.444444e-03 
  0.73333333  0.40000000  0.00000000  4.444444e-03 
  0.73333333  0.46666667  0.00000000  4.444444e-03 
  0.73333333  0.53333333  0.00000000  4.444444e-03 
  0.73333333  0.60000000  0.00000000  4.444444e-03 
  0.73333333  0.66666667  0.00000000  4.444444e-03 
  0.73333333  0.73333333  0.00000000  4.444444e-03 
  0.73333333  0.80000000  0.00000000  4.444444e-03 
  0.73333333  0.86666667  0.00000000  4.444444e-03 
  0.73333333  0.93333333  0.00000000  4.444444e-03 
  0.80000000  0.00000000  0.00000000  4.444444e-03 
  0.80000000  0.06666667  0.00000000  4.444444e-03 
  0.80000000  0.13333333  0.00000000  4.444444e-03 
  0.80000000  0.20000000  0.00000000  4.444444e-03 
  0.80000000  0.26666667  0.00000000  4.444444e-03 
  0.80000000  0.33333333  0.00000000  4.444444e-03 
  0.80000000  0.40000000  0.00000000  4.444444e-03 
  0.80000000  0.46666667  0.00000000  4.444444e-03 
  0.80000000  0.53333333  0.00000000  4.444444e-03 
  0.80000000  0.60000000  0.00000000  4.444444e-03 
  0.80000000  0.66666667  0.00000000  4.444444e-03 
  0.80000000  0.73333333  0.00000000  4.444444e-03 
  0.80000000  0.80000000  0.00000000  4.444444e-03 
  0.80000000  0.86666667  0.00000000  4.444444e-03 
  0.80000000  0.93333333  0.00000000  4.444444e-03 
  0.86666667  0.00000000  0.00000000  4.444444e-03 
  0.86666667  0.06666667  0.00000000  4.444444e-03 
  0.86666667  0.13333333  0.00000000  4.444444e-03 
  0.86666667  0.20000000  0.00000000  4.444444e-03 
  0.86666667  0.26666667  0.00000000  4.444444e-03 
  0.86666667  0.33333333  0.00000000  4.444444e-03 
  0.86666667  0.40000000  0.00000000  4.444444e-03 
  0.86666667  0.46666667  0.00000000  4.444444e-03 
  0.86666667  0.53333333  0.00000000  4.444444e-03 
  0.86666667  0.60000000  0.00000000  4.444444e-03 
  0.86666667  0.66666667  0.00000000  4.444444e-03 
  0.86666667  0.73333333  0.00000000  4.444444e-03 
  0.86666667  0.80000000  0.00000000  4.444444e-03 
  0.86666667  0.86666667  0.00000000  4.444444e-03 
  0.86666667  0.93333333  0.00000000  4.444444e-03 
  0.93333333  0.00000000  0.00000000  4.444444e-03 
  0.93333333  0.06666667  0.00000000  4.444444e-03 
  0.93333333  0.13333333  0.00000000  4.444444e-03 
  0.93333333  0.20000000  0.00000000  4.444444e-03 
  0.93333333  0.26666667  0.00000000  4.444444e-03 
  0.93333333  0.33333333  0.00000000  4.444444e-03 
  0.93333333  0.40000000  0.00000000  4.444444e-03 
  0.93333333  0.46666667  0.00000000  4.444444e-03 
  0.93333333  0.53333333  0.00000000  4.444444e-03 
  0.93333333  0.60000000  0.00000000  4.444444e-03 
  0.93333333  0.66666667  0.00000000  4.444444e-03 
  0.93333333  0.73333333  0.00000000  4.444444e-03 
  0.93333333  0.80000000  0.00000000  4.444444e-03 
  0.93333333  0.86666667  0.00000000  4.444444e-03 
  0.93333333  0.93333333  0.00000000  4.444444e-03 
